p cnf 11 23
11 -10 -3 0
-11 9 6 0
11 -9 4 0
11 8 6 0
-11 8 5 0
11 -8 2 0
-11 -7 5 0
-11 7 -2 0
-11 7 2 0
10 9 -6 0
10 -9 4 0
10 9 1 0
-10 7 1 0
9 8 5 0
-9 -8 3 0
9 8 1 0
-9 7 -2 0
9 -7 -1 0
-9 -6 4 0
9 4 -1 0
-8 -7 2 0
8 -4 1 0
-6 5 1 0
